\ Model idol-model
\ LP format - for model browsing. Use MPS format to capture full model detail.
\ Signature: 0xc27655aa393e3d3f
Minimize
  658 C0000000 + 305 C0000001 + 378 C0000002 + 65 C0000003 + 1000 C0000004
   + 11 C0000005 + 976 C0000006 + 489 C0000007 + 754 C0000008
   + 961 C0000009 + 786 C0000010 + 857 C0000011 + 442 C0000012
   + 951 C0000013 + 363 C0000014 + 975 C0000015 + 924 C0000016
   + 389 C0000017 + 118 C0000018 + 77 C0000019 + 84 C0000020 + 774 C0000021
   + 604 C0000022 + 102 C0000023 + 316 C0000024 + 543 C0000025
   + 628 C0000026 + 381 C0000027 + 910 C0000028 + 621 C0000029
Subject To
 R0000000: 174 C0000000 + 157 C0000001 + 196 C0000002 + 567 C0000003
   + 786 C0000004 + 673 C0000005 + 808 C0000006 + 211 C0000007
   + 86 C0000008 + 565 C0000009 + 868 C0000010 + 623 C0000011
   + 716 C0000012 + 927 C0000013 + 196 C0000014 + 367 C0000015
   + 722 C0000016 + 529 C0000017 + 616 C0000018 + 459 C0000019
   + 936 C0000020 + 497 C0000021 + 129 C0000022 + 409 C0000023
   + 529 C0000024 + 778 C0000025 + 247 C0000026 + 523 C0000027
   + 119 C0000028 + 979 C0000029 <= 7696
 IC0: C0000000 + x0 <= 1
 IC1: C0000001 + x1 <= 1
 IC2: C0000002 + x2 <= 1
 IC3: C0000003 + x3 <= 1
 IC4: C0000004 + x4 <= 1
 IC5: C0000005 + x5 <= 1
 IC6: C0000006 + x6 <= 1
 IC7: C0000007 + x7 <= 1
 IC8: C0000008 + x8 <= 1
 IC9: C0000009 + x9 <= 1
 IC10: C0000010 + x10 <= 1
 IC11: C0000011 + x11 <= 1
 IC12: C0000012 + x12 <= 1
 IC13: C0000013 + x13 <= 1
 IC14: C0000014 + x14 <= 1
 IC15: C0000015 + x15 <= 1
 IC16: C0000016 + x16 <= 1
 IC17: C0000017 + x17 <= 1
 IC18: C0000018 + x18 <= 1
 IC19: C0000019 + x19 <= 1
 IC20: C0000020 + x20 <= 1
 IC21: C0000021 + x21 <= 1
 IC22: C0000022 + x22 <= 1
 IC23: C0000023 + x23 <= 1
 IC24: C0000024 + x24 <= 1
 IC25: C0000025 + x25 <= 1
 IC26: C0000026 + x26 <= 1
 IC27: C0000027 + x27 <= 1
 IC28: C0000028 + x28 <= 1
 IC29: C0000029 + x29 <= 1
 interdictionBudget: 796 x0 + 103 x1 + 90 x2 + 289 x3 + 482 x4 + 97 x5
   + 488 x6 + 722 x7 + 400 x8 + 282 x9 + 8 x10 + 290 x11 + 529 x12
   + 810 x13 + 945 x14 + 18 x15 + 577 x16 + 178 x17 + 665 x18 + 544 x19
   + 714 x20 + 177 x21 + 770 x22 + 863 x23 + 236 x24 + 293 x25 + 294 x26
   + 45 x27 + 460 x28 + 975 x29 <= 6570
 c_122: - 658 C0000000 - 305 C0000001 - 378 C0000002 - 65 C0000003
   - 1000 C0000004 - 11 C0000005 - 976 C0000006 - 489 C0000007
   - 754 C0000008 - 961 C0000009 - 786 C0000010 - 857 C0000011
   - 442 C0000012 - 951 C0000013 - 363 C0000014 - 975 C0000015
   - 924 C0000016 - 389 C0000017 - 118 C0000018 - 77 C0000019 - 84 C0000020
   - 774 C0000021 - 604 C0000022 - 102 C0000023 - 316 C0000024
   - 543 C0000025 - 628 C0000026 - 381 C0000027 - 910 C0000028
   - 621 C0000029 <= 0
Bounds
Binaries
 C0000000 C0000001 C0000002 C0000003 C0000004 C0000005 C0000006 C0000007
 C0000008 C0000009 C0000010 C0000011 C0000012 C0000013 C0000014 C0000015
 C0000016 C0000017 C0000018 C0000019 C0000020 C0000021 C0000022 C0000023
 C0000024 C0000025 C0000026 C0000027 C0000028 C0000029 x0 x1 x2 x3 x4 x5 x6
 x7 x8 x9 x10 x11 x12 x13 x14 x15 x16 x17 x18 x19 x20 x21 x22 x23 x24 x25
 x26 x27 x28 x29
End
